(declare-datatype Nat ((Z) (S (proj1-S Nat))))
(declare-datatype list ((nil) (cons (head Nat) (tail list))))
(define-fun-rec
  ==
  ((x Nat) (y Nat)) Bool
  (match x
    ((Z
      (match y
        ((Z true)
         ((S z) false))))
     ((S x2)
      (match y
        ((Z false)
         ((S y2) (== x2 y2))))))))
(define-fun-rec
  count
  ((x Nat) (y list)) Nat
  (match y
    ((nil Z)
     ((cons z xs) (ite (== x z) (S (count x xs)) (count x xs))))))
(define-fun-rec
  <=2
  ((x Nat) (y Nat)) Bool
  (match x
    ((Z true)
     ((S z)
      (match y
        ((Z false)
         ((S x2) (<=2 z x2))))))))
(define-fun-rec
  insert2
  ((x Nat) (y list)) list
  (match y
    ((nil (cons x nil))
     ((cons z xs)
      (ite (<=2 x z) (cons x (cons z xs)) (cons z (insert2 x xs)))))))
(define-fun-rec
  isort
  ((x list)) list
  (match x
    ((nil nil)
     ((cons y xs) (insert2 y (isort xs))))))
(assert
  (not
    (forall ((x Nat) (y list)) (= (count x (isort y)) (count x y)))))
(check-sat)
